; Options: -in -smt2
(set-option :produce-unsat-assumptions true)

(declare-fun start!2627 () Bool)

(assert start!2627)

(declare-fun res!10835 () Bool)

(declare-fun e!8185 () Bool)

(assert (=> start!2627 (=> (not res!10835) (not e!8185))))

(declare-fun jz!20 () (_ BitVec 32))

(assert (=> start!2627 (= res!10835 (and (bvsle #b00000000000000000000000000000010 jz!20) (bvslt jz!20 #b00000000000000000000000000010011)))))

(assert (=> start!2627 e!8185))

(assert (=> start!2627 true))

(declare-datatypes ((array!1147 0))(
  ( (array!1148 (arr!507 (Array (_ BitVec 32) (_ FloatingPoint 11 53))) (size!507 (_ BitVec 32))) )
))
(declare-fun q!31 () array!1147)

(declare-fun array_inv!455 (array!1147) Bool)

(assert (=> start!2627 (array_inv!455 q!31)))

(declare-datatypes ((array!1149 0))(
  ( (array!1150 (arr!508 (Array (_ BitVec 32) (_ BitVec 32))) (size!508 (_ BitVec 32))) )
))
(declare-fun iq!76 () array!1149)

(declare-fun array_inv!456 (array!1149) Bool)

(assert (=> start!2627 (array_inv!456 iq!76)))

(declare-fun b!14105 () Bool)

(declare-fun res!10837 () Bool)

(assert (=> b!14105 (=> (not res!10837) (not e!8185))))

(declare-fun qInv!0 (array!1147) Bool)

(assert (=> b!14105 (= res!10837 (qInv!0 q!31))))

(declare-fun lt!7674 () array!1149)

(declare-datatypes ((Unit!1559 0))(
  ( (Unit!1560) )
))
(declare-datatypes ((tuple4!392 0))(
  ( (tuple4!393 (_1!390 Unit!1559) (_2!390 array!1149) (_3!327 (_ BitVec 32)) (_4!196 (_ FloatingPoint 11 53))) )
))
(declare-fun e!8181 () tuple4!392)

(declare-fun b!14106 () Bool)

(declare-fun lt!7676 () (_ FloatingPoint 11 53))

(declare-fun computeModuloWhile!0 ((_ BitVec 32) array!1147 array!1149 (_ BitVec 32) (_ FloatingPoint 11 53)) tuple4!392)

(assert (=> b!14106 (= e!8181 (computeModuloWhile!0 jz!20 q!31 lt!7674 jz!20 lt!7676))))

(declare-fun b!14107 () Bool)

(declare-fun e!8179 () Bool)

(assert (=> b!14107 (= e!8185 e!8179)))

(declare-fun res!10833 () Bool)

(assert (=> b!14107 (=> (not res!10833) (not e!8179))))

(declare-fun lt!7678 () tuple4!392)

(declare-fun lt!7679 () (_ FloatingPoint 11 53))

(declare-fun i!142 () (_ BitVec 32))

(assert (=> b!14107 (= res!10833 (and (fp.leq (fp #b0 #b00000000000 #b0000000000000000000000000000000000000000000000000000) lt!7679) (fp.lt lt!7679 (fp #b0 #b10000000010 #b0000000000000000000000000000000000000000000000000000)) (bvsge (select (arr!508 (_2!390 lt!7678)) (bvsub jz!20 #b00000000000000000000000000000001)) #b00000000100000000000000000000000) (bvsle #b00000000000000000000000000000000 i!142) (bvsle i!142 (bvsub jz!20 #b00000000000000000000000000000001))))))

(assert (=> b!14107 (= lt!7679 (fp.sub roundNearestTiesToEven (_4!196 lt!7678) (fp.mul roundNearestTiesToEven (fp #b0 #b10000000010 #b0000000000000000000000000000000000000000000000000000) ((_ to_fp 11 53) roundNearestTiesToEven (ite (fp.isNaN (fp.mul roundNearestTiesToEven (_4!196 lt!7678) (fp #b0 #b01111111100 #b0000000000000000000000000000000000000000000000000000))) #b0000000000000000000000000000000000000000000000000000000000000000 (ite (fp.gt (fp.mul roundNearestTiesToEven (_4!196 lt!7678) (fp #b0 #b01111111100 #b0000000000000000000000000000000000000000000000000000)) ((_ to_fp 11 53) roundTowardZero #b0111111111111111111111111111111111111111111111111111111111111111)) #b0111111111111111111111111111111111111111111111111111111111111111 (ite (fp.lt (fp.mul roundNearestTiesToEven (_4!196 lt!7678) (fp #b0 #b01111111100 #b0000000000000000000000000000000000000000000000000000)) ((_ to_fp 11 53) roundTowardZero #b1000000000000000000000000000000000000000000000000000000000000000)) #b1000000000000000000000000000000000000000000000000000000000000000 ((_ fp.to_sbv 64) roundTowardZero (fp.mul roundNearestTiesToEven (_4!196 lt!7678) (fp #b0 #b01111111100 #b0000000000000000000000000000000000000000000000000000))))))))))))

(assert (=> b!14107 (= lt!7678 e!8181)))

(declare-fun c!1848 () Bool)

(assert (=> b!14107 (= c!1848 (bvsgt jz!20 #b00000000000000000000000000000000))))

(assert (=> b!14107 (= lt!7676 (select (arr!507 q!31) jz!20))))

(assert (=> b!14107 (= lt!7674 (array!1150 ((as const (Array (_ BitVec 32) (_ BitVec 32))) #b00000000000000000000000000000000) #b00000000000000000000000000010100))))

(declare-fun b!14108 () Bool)

(declare-fun e!8182 () Bool)

(assert (=> b!14108 (= e!8179 e!8182)))

(declare-fun res!10836 () Bool)

(assert (=> b!14108 (=> (not res!10836) (not e!8182))))

(declare-fun lt!7677 () (_ BitVec 32))

(declare-fun QInt!0 ((_ BitVec 32)) Bool)

(assert (=> b!14108 (= res!10836 (QInt!0 lt!7677))))

(assert (=> b!14108 (= lt!7677 (select (arr!508 iq!76) i!142))))

(declare-fun b!14109 () Bool)

(declare-fun e!8178 () Bool)

(declare-fun e!8180 () Bool)

(assert (=> b!14109 (= e!8178 e!8180)))

(declare-fun res!10832 () Bool)

(assert (=> b!14109 (=> (not res!10832) (not e!8180))))

(declare-datatypes ((tuple4!394 0))(
  ( (tuple4!395 (_1!391 Unit!1559) (_2!391 (_ BitVec 32)) (_3!328 array!1149) (_4!197 (_ BitVec 32))) )
))
(declare-fun lt!7675 () tuple4!394)

(assert (=> b!14109 (= res!10832 (and (bvsle #b00000000000000000000000000000000 (_2!391 lt!7675)) (bvsle (_2!391 lt!7675) (bvsub jz!20 #b00000000000000000000000000000001))))))

(declare-fun lt!7672 () (_ BitVec 32))

(declare-fun carry!33 () (_ BitVec 32))

(declare-fun computeModuloWhile!3 ((_ BitVec 32) array!1147 (_ BitVec 32) array!1149 (_ BitVec 32)) tuple4!394)

(assert (=> b!14109 (= lt!7675 (computeModuloWhile!3 jz!20 q!31 lt!7672 (array!1150 (store (arr!508 iq!76) i!142 (ite (= carry!33 #b00000000000000000000000000000000) (ite (not (= lt!7677 #b00000000000000000000000000000000)) (bvsub #b00000001000000000000000000000000 lt!7677) #b00000000000000000000000000000000) (bvsub #b00000000111111111111111111111111 lt!7677))) (size!508 iq!76)) (ite (and (= carry!33 #b00000000000000000000000000000000) (not (= lt!7677 #b00000000000000000000000000000000))) #b00000000000000000000000000000001 carry!33)))))

(declare-fun b!14110 () Bool)

(declare-fun lt!7673 () (_ BitVec 32))

(assert (=> b!14110 (= e!8180 (or (bvslt lt!7673 #b00000000000000000000000000000000) (bvsge lt!7673 (size!508 (_3!328 lt!7675)))))))

(assert (=> b!14110 (= lt!7673 (bvsub jz!20 #b00000000000000000000000000000001))))

(declare-fun b!14111 () Bool)

(declare-fun res!10834 () Bool)

(assert (=> b!14111 (=> (not res!10834) (not e!8179))))

(assert (=> b!14111 (= res!10834 (and (bvsge (select (arr!508 iq!76) (bvsub jz!20 #b00000000000000000000000000000001)) #b00000000100000000000000000000000) (or (= carry!33 #b00000000000000000000000000000000) (= carry!33 #b00000000000000000000000000000001)) (bvslt i!142 (bvsub jz!20 #b00000000000000000000000000000001))))))

(declare-fun b!14112 () Bool)

(assert (=> b!14112 (= e!8182 e!8178)))

(declare-fun res!10838 () Bool)

(assert (=> b!14112 (=> (not res!10838) (not e!8178))))

(assert (=> b!14112 (= res!10838 (bvslt lt!7672 (bvsub jz!20 #b00000000000000000000000000000001)))))

(assert (=> b!14112 (= lt!7672 (bvadd i!142 #b00000000000000000000000000000001))))

(declare-fun b!14113 () Bool)

(declare-fun Unit!1561 () Unit!1559)

(assert (=> b!14113 (= e!8181 (tuple4!393 Unit!1561 lt!7674 jz!20 lt!7676))))

(declare-fun b!14114 () Bool)

(declare-fun res!10831 () Bool)

(assert (=> b!14114 (=> (not res!10831) (not e!8180))))

(declare-fun iqInv!0 (array!1149) Bool)

(assert (=> b!14114 (= res!10831 (iqInv!0 (_3!328 lt!7675)))))

(declare-fun b!14115 () Bool)

(declare-fun res!10839 () Bool)

(assert (=> b!14115 (=> (not res!10839) (not e!8179))))

(assert (=> b!14115 (= res!10839 (iqInv!0 iq!76))))

(assert (= (and start!2627 res!10835) b!14105))

(assert (= (and b!14105 res!10837) b!14107))

(assert (= (and b!14107 c!1848) b!14106))

(assert (= (and b!14107 (not c!1848)) b!14113))

(assert (= (and b!14107 res!10833) b!14115))

(assert (= (and b!14115 res!10839) b!14111))

(assert (= (and b!14111 res!10834) b!14108))

(assert (= (and b!14108 res!10836) b!14112))

(assert (= (and b!14112 res!10838) b!14109))

(assert (= (and b!14109 res!10832) b!14114))

(assert (= (and b!14114 res!10831) b!14110))

(declare-fun m!19731 () Bool)

(assert (=> start!2627 m!19731))

(declare-fun m!19733 () Bool)

(assert (=> start!2627 m!19733))

(declare-fun m!19735 () Bool)

(assert (=> b!14106 m!19735))

(declare-fun m!19737 () Bool)

(assert (=> b!14111 m!19737))

(declare-fun m!19739 () Bool)

(assert (=> b!14115 m!19739))

(declare-fun m!19741 () Bool)

(assert (=> b!14105 m!19741))

(declare-fun m!19743 () Bool)

(assert (=> b!14107 m!19743))

(declare-fun m!19745 () Bool)

(assert (=> b!14107 m!19745))

(declare-fun m!19747 () Bool)

(assert (=> b!14109 m!19747))

(declare-fun m!19749 () Bool)

(assert (=> b!14109 m!19749))

(declare-fun m!19751 () Bool)

(assert (=> b!14114 m!19751))

(declare-fun m!19753 () Bool)

(assert (=> b!14108 m!19753))

(declare-fun m!19755 () Bool)

(assert (=> b!14108 m!19755))

(check-sat (not start!2627) (not b!14105) (not b!14115) (not b!14106) (not b!14109) (not b!14114) (not b!14108))
(check-sat)
(get-model)

(declare-fun d!4845 () Bool)

(assert (=> d!4845 (= (array_inv!455 q!31) (bvsge (size!507 q!31) #b00000000000000000000000000000000))))

(assert (=> start!2627 d!4845))

(declare-fun d!4847 () Bool)

(assert (=> d!4847 (= (array_inv!456 iq!76) (bvsge (size!508 iq!76) #b00000000000000000000000000000000))))

(assert (=> start!2627 d!4847))

(declare-fun d!4849 () Bool)

(declare-fun res!10842 () Bool)

(declare-fun e!8188 () Bool)

(assert (=> d!4849 (=> (not res!10842) (not e!8188))))

(assert (=> d!4849 (= res!10842 (= (size!507 q!31) #b00000000000000000000000000010100))))

(assert (=> d!4849 (= (qInv!0 q!31) e!8188)))

(declare-fun b!14118 () Bool)

(declare-fun lambda!604 () Int)

(declare-fun all20!0 (array!1147 Int) Bool)

(assert (=> b!14118 (= e!8188 (all20!0 q!31 lambda!604))))

(assert (= (and d!4849 res!10842) b!14118))

(declare-fun m!19757 () Bool)

(assert (=> b!14118 m!19757))

(assert (=> b!14105 d!4849))

(declare-fun d!4851 () Bool)

(declare-fun e!8196 () Bool)

(assert (=> d!4851 e!8196))

(declare-fun res!10851 () Bool)

(assert (=> d!4851 (=> (not res!10851) (not e!8196))))

(declare-fun lt!7691 () tuple4!392)

(assert (=> d!4851 (= res!10851 (and true true (bvsle #b00000000000000000000000000000000 (_3!327 lt!7691)) (bvsle (_3!327 lt!7691) jz!20) (fp.leq (fp #b0 #b00000000000 #b0000000000000000000000000000000000000000000000000000) (_4!196 lt!7691)) (fp.leq (_4!196 lt!7691) (fp #b0 #b10000110001 #b0100000000000000000000010011111111111111111111111100))))))

(declare-fun e!8195 () tuple4!392)

(assert (=> d!4851 (= lt!7691 e!8195)))

(declare-fun c!1851 () Bool)

(declare-fun lt!7694 () (_ BitVec 32))

(assert (=> d!4851 (= c!1851 (bvsgt lt!7694 #b00000000000000000000000000000000))))

(assert (=> d!4851 (= lt!7694 (bvsub jz!20 #b00000000000000000000000000000001))))

(declare-fun lt!7693 () (_ FloatingPoint 11 53))

(declare-fun lt!7690 () (_ FloatingPoint 11 53))

(assert (=> d!4851 (= lt!7690 (fp.add roundNearestTiesToEven (select (arr!507 q!31) (bvsub jz!20 #b00000000000000000000000000000001)) lt!7693))))

(declare-fun lt!7692 () array!1149)

(assert (=> d!4851 (= lt!7692 (array!1150 (store (arr!508 lt!7674) (bvsub jz!20 jz!20) (ite (fp.isNaN (fp.sub roundNearestTiesToEven lt!7676 (fp.mul roundNearestTiesToEven (fp #b0 #b10000010111 #b0000000000000000000000000000000000000000000000000000) lt!7693))) #b00000000000000000000000000000000 (ite (fp.gt (fp.sub roundNearestTiesToEven lt!7676 (fp.mul roundNearestTiesToEven (fp #b0 #b10000010111 #b0000000000000000000000000000000000000000000000000000) lt!7693)) ((_ to_fp 11 53) roundTowardZero #b01111111111111111111111111111111)) #b01111111111111111111111111111111 (ite (fp.lt (fp.sub roundNearestTiesToEven lt!7676 (fp.mul roundNearestTiesToEven (fp #b0 #b10000010111 #b0000000000000000000000000000000000000000000000000000) lt!7693)) ((_ to_fp 11 53) roundTowardZero #b10000000000000000000000000000000)) #b10000000000000000000000000000000 ((_ fp.to_sbv 32) roundTowardZero (fp.sub roundNearestTiesToEven lt!7676 (fp.mul roundNearestTiesToEven (fp #b0 #b10000010111 #b0000000000000000000000000000000000000000000000000000) lt!7693))))))) (size!508 lt!7674)))))

(assert (=> d!4851 (= lt!7693 ((_ to_fp 11 53) roundNearestTiesToEven (ite (fp.isNaN (fp.mul roundNearestTiesToEven (fp #b0 #b01111100111 #b0000000000000000000000000000000000000000000000000000) lt!7676)) #b00000000000000000000000000000000 (ite (fp.gt (fp.mul roundNearestTiesToEven (fp #b0 #b01111100111 #b0000000000000000000000000000000000000000000000000000) lt!7676) ((_ to_fp 11 53) roundTowardZero #b01111111111111111111111111111111)) #b01111111111111111111111111111111 (ite (fp.lt (fp.mul roundNearestTiesToEven (fp #b0 #b01111100111 #b0000000000000000000000000000000000000000000000000000) lt!7676) ((_ to_fp 11 53) roundTowardZero #b10000000000000000000000000000000)) #b10000000000000000000000000000000 ((_ fp.to_sbv 32) roundTowardZero (fp.mul roundNearestTiesToEven (fp #b0 #b01111100111 #b0000000000000000000000000000000000000000000000000000) lt!7676)))))))))

(declare-fun e!8197 () Bool)

(assert (=> d!4851 e!8197))

(declare-fun res!10854 () Bool)

(assert (=> d!4851 (=> (not res!10854) (not e!8197))))

(assert (=> d!4851 (= res!10854 (and (bvsle #b00000000000000000000000000000000 jz!20) (bvsle jz!20 jz!20) (fp.leq (fp #b0 #b00000000000 #b0000000000000000000000000000000000000000000000000000) lt!7676) (fp.leq lt!7676 (fp #b0 #b10000110001 #b0100000000000000000000010011111111111111111111111100))))))

(assert (=> d!4851 (= (computeModuloWhile!0 jz!20 q!31 lt!7674 jz!20 lt!7676) lt!7691)))

(declare-fun b!14131 () Bool)

(declare-fun res!10852 () Bool)

(assert (=> b!14131 (=> (not res!10852) (not e!8197))))

(assert (=> b!14131 (= res!10852 (iqInv!0 lt!7674))))

(declare-fun b!14132 () Bool)

(assert (=> b!14132 (= e!8195 (computeModuloWhile!0 jz!20 q!31 lt!7692 lt!7694 lt!7690))))

(declare-fun b!14133 () Bool)

(declare-fun Unit!1562 () Unit!1559)

(assert (=> b!14133 (= e!8195 (tuple4!393 Unit!1562 lt!7692 lt!7694 lt!7690))))

(declare-fun b!14134 () Bool)

(assert (=> b!14134 (= e!8196 (bvsle (_3!327 lt!7691) #b00000000000000000000000000000000))))

(declare-fun b!14135 () Bool)

(declare-fun res!10853 () Bool)

(assert (=> b!14135 (=> (not res!10853) (not e!8196))))

(assert (=> b!14135 (= res!10853 (iqInv!0 (_2!390 lt!7691)))))

(declare-fun b!14136 () Bool)

(assert (=> b!14136 (= e!8197 (bvsgt jz!20 #b00000000000000000000000000000000))))

(assert (= (and d!4851 res!10854) b!14131))

(assert (= (and b!14131 res!10852) b!14136))

(assert (= (and d!4851 c!1851) b!14132))

(assert (= (and d!4851 (not c!1851)) b!14133))

(assert (= (and d!4851 res!10851) b!14135))

(assert (= (and b!14135 res!10853) b!14134))

(declare-fun m!19759 () Bool)

(assert (=> d!4851 m!19759))

(declare-fun m!19761 () Bool)

(assert (=> d!4851 m!19761))

(declare-fun m!19763 () Bool)

(assert (=> b!14131 m!19763))

(declare-fun m!19765 () Bool)

(assert (=> b!14132 m!19765))

(declare-fun m!19767 () Bool)

(assert (=> b!14135 m!19767))

(assert (=> b!14106 d!4851))

(declare-fun lt!7715 () array!1149)

(declare-fun e!8206 () tuple4!392)

(declare-fun b!14157 () Bool)

(declare-fun lt!7713 () (_ FloatingPoint 11 53))

(assert (=> b!14157 (= e!8206 (computeModuloWhile!0 jz!20 q!31 lt!7715 jz!20 lt!7713))))

(declare-fun b!14158 () Bool)

(declare-fun Unit!1563 () Unit!1559)

(assert (=> b!14158 (= e!8206 (tuple4!393 Unit!1563 lt!7715 jz!20 lt!7713))))

(declare-fun b!14159 () Bool)

(declare-fun res!10870 () Bool)

(declare-fun e!8209 () Bool)

(assert (=> b!14159 (=> (not res!10870) (not e!8209))))

(declare-fun lt!7720 () tuple4!394)

(declare-fun lt!7721 () (_ BitVec 32))

(assert (=> b!14159 (= res!10870 (bvsge (select (arr!508 (_3!328 lt!7720)) lt!7721) #b00000000100000000000000000000000))))

(assert (=> b!14159 (and (bvsge lt!7721 #b00000000000000000000000000000000) (bvslt lt!7721 (size!508 (_3!328 lt!7720))))))

(assert (=> b!14159 (= lt!7721 (bvsub jz!20 #b00000000000000000000000000000001))))

(assert (=> b!14159 (or (= (bvand jz!20 #b10000000000000000000000000000000) #b00000000000000000000000000000000) (= (bvand jz!20 #b10000000000000000000000000000000) (bvand (bvsub jz!20 #b00000000000000000000000000000001) #b10000000000000000000000000000000)))))

(declare-fun b!14160 () Bool)

(declare-fun res!10869 () Bool)

(declare-fun e!8208 () Bool)

(assert (=> b!14160 (=> (not res!10869) (not e!8208))))

(assert (=> b!14160 (= res!10869 (iqInv!0 (array!1150 (store (arr!508 iq!76) i!142 (ite (= carry!33 #b00000000000000000000000000000000) (ite (not (= lt!7677 #b00000000000000000000000000000000)) (bvsub #b00000001000000000000000000000000 lt!7677) #b00000000000000000000000000000000) (bvsub #b00000000111111111111111111111111 lt!7677))) (size!508 iq!76))))))

(declare-fun b!14161 () Bool)

(assert (=> b!14161 (= e!8209 (bvsge (_2!391 lt!7720) (bvsub jz!20 #b00000000000000000000000000000001)))))

(assert (=> b!14161 (or (= (bvand jz!20 #b10000000000000000000000000000000) #b00000000000000000000000000000000) (= (bvand jz!20 #b10000000000000000000000000000000) (bvand (bvsub jz!20 #b00000000000000000000000000000001) #b10000000000000000000000000000000)))))

(declare-fun lt!7714 () (_ BitVec 32))

(declare-fun lt!7716 () (_ BitVec 32))

(declare-fun b!14162 () Bool)

(declare-fun lt!7717 () array!1149)

(declare-fun e!8207 () tuple4!394)

(declare-fun Unit!1564 () Unit!1559)

(assert (=> b!14162 (= e!8207 (tuple4!395 Unit!1564 lt!7714 lt!7717 lt!7716))))

(declare-fun b!14163 () Bool)

(declare-fun res!10867 () Bool)

(assert (=> b!14163 (=> (not res!10867) (not e!8209))))

(assert (=> b!14163 (= res!10867 (iqInv!0 (_3!328 lt!7720)))))

(declare-fun b!14164 () Bool)

(assert (=> b!14164 (= e!8208 (and (bvsge (select (arr!508 (array!1150 (store (arr!508 iq!76) i!142 (ite (= carry!33 #b00000000000000000000000000000000) (ite (not (= lt!7677 #b00000000000000000000000000000000)) (bvsub #b00000001000000000000000000000000 lt!7677) #b00000000000000000000000000000000) (bvsub #b00000000111111111111111111111111 lt!7677))) (size!508 iq!76))) (bvsub jz!20 #b00000000000000000000000000000001)) #b00000000100000000000000000000000) (or (= (ite (and (= carry!33 #b00000000000000000000000000000000) (not (= lt!7677 #b00000000000000000000000000000000))) #b00000000000000000000000000000001 carry!33) #b00000000000000000000000000000000) (= (ite (and (= carry!33 #b00000000000000000000000000000000) (not (= lt!7677 #b00000000000000000000000000000000))) #b00000000000000000000000000000001 carry!33) #b00000000000000000000000000000001)) (bvslt lt!7672 (bvsub jz!20 #b00000000000000000000000000000001))))))

(declare-fun d!4853 () Bool)

(assert (=> d!4853 e!8209))

(declare-fun res!10868 () Bool)

(assert (=> d!4853 (=> (not res!10868) (not e!8209))))

(assert (=> d!4853 (= res!10868 (and (or (bvsgt #b00000000000000000000000000000000 (_2!391 lt!7720)) (= (bvand jz!20 #b10000000000000000000000000000000) #b00000000000000000000000000000000) (= (bvand jz!20 #b10000000000000000000000000000000) (bvand (bvsub jz!20 #b00000000000000000000000000000001) #b10000000000000000000000000000000))) (bvsle #b00000000000000000000000000000000 (_2!391 lt!7720)) (bvsle (_2!391 lt!7720) (bvsub jz!20 #b00000000000000000000000000000001))))))

(assert (=> d!4853 (= lt!7720 e!8207)))

(declare-fun c!1856 () Bool)

(assert (=> d!4853 (= c!1856 (bvslt lt!7714 (bvsub jz!20 #b00000000000000000000000000000001)))))

(assert (=> d!4853 (= lt!7714 (bvadd lt!7672 #b00000000000000000000000000000001))))

(declare-fun lt!7718 () (_ BitVec 32))

(assert (=> d!4853 (= lt!7716 (ite (and (= (ite (and (= carry!33 #b00000000000000000000000000000000) (not (= lt!7677 #b00000000000000000000000000000000))) #b00000000000000000000000000000001 carry!33) #b00000000000000000000000000000000) (not (= lt!7718 #b00000000000000000000000000000000))) #b00000000000000000000000000000001 (ite (and (= carry!33 #b00000000000000000000000000000000) (not (= lt!7677 #b00000000000000000000000000000000))) #b00000000000000000000000000000001 carry!33)))))

(assert (=> d!4853 (= lt!7717 (array!1150 (store (arr!508 (array!1150 (store (arr!508 iq!76) i!142 (ite (= carry!33 #b00000000000000000000000000000000) (ite (not (= lt!7677 #b00000000000000000000000000000000)) (bvsub #b00000001000000000000000000000000 lt!7677) #b00000000000000000000000000000000) (bvsub #b00000000111111111111111111111111 lt!7677))) (size!508 iq!76))) lt!7672 (ite (= (ite (and (= carry!33 #b00000000000000000000000000000000) (not (= lt!7677 #b00000000000000000000000000000000))) #b00000000000000000000000000000001 carry!33) #b00000000000000000000000000000000) (ite (not (= lt!7718 #b00000000000000000000000000000000)) (bvsub #b00000001000000000000000000000000 lt!7718) #b00000000000000000000000000000000) (bvsub #b00000000111111111111111111111111 lt!7718))) (size!508 (array!1150 (store (arr!508 iq!76) i!142 (ite (= carry!33 #b00000000000000000000000000000000) (ite (not (= lt!7677 #b00000000000000000000000000000000)) (bvsub #b00000001000000000000000000000000 lt!7677) #b00000000000000000000000000000000) (bvsub #b00000000111111111111111111111111 lt!7677))) (size!508 iq!76)))))))

(assert (=> d!4853 (= lt!7718 (select (arr!508 (array!1150 (store (arr!508 iq!76) i!142 (ite (= carry!33 #b00000000000000000000000000000000) (ite (not (= lt!7677 #b00000000000000000000000000000000)) (bvsub #b00000001000000000000000000000000 lt!7677) #b00000000000000000000000000000000) (bvsub #b00000000111111111111111111111111 lt!7677))) (size!508 iq!76))) lt!7672))))

(assert (=> d!4853 e!8208))

(declare-fun res!10872 () Bool)

(assert (=> d!4853 (=> (not res!10872) (not e!8208))))

(assert (=> d!4853 (= res!10872 (and (bvsle #b00000000000000000000000000000000 lt!7672) (bvsle lt!7672 (bvsub jz!20 #b00000000000000000000000000000001))))))

(declare-fun lt!7719 () tuple4!392)

(assert (=> d!4853 (= lt!7719 e!8206)))

(declare-fun c!1857 () Bool)

(assert (=> d!4853 (= c!1857 (bvsgt jz!20 #b00000000000000000000000000000000))))

(assert (=> d!4853 (= lt!7713 (select (arr!507 q!31) jz!20))))

(assert (=> d!4853 (= lt!7715 (array!1150 ((as const (Array (_ BitVec 32) (_ BitVec 32))) #b00000000000000000000000000000000) #b00000000000000000000000000010100))))

(assert (=> d!4853 (= (computeModuloWhile!3 jz!20 q!31 lt!7672 (array!1150 (store (arr!508 iq!76) i!142 (ite (= carry!33 #b00000000000000000000000000000000) (ite (not (= lt!7677 #b00000000000000000000000000000000)) (bvsub #b00000001000000000000000000000000 lt!7677) #b00000000000000000000000000000000) (bvsub #b00000000111111111111111111111111 lt!7677))) (size!508 iq!76)) (ite (and (= carry!33 #b00000000000000000000000000000000) (not (= lt!7677 #b00000000000000000000000000000000))) #b00000000000000000000000000000001 carry!33)) lt!7720)))

(declare-fun b!14165 () Bool)

(declare-fun res!10871 () Bool)

(assert (=> b!14165 (=> (not res!10871) (not e!8209))))

(assert (=> b!14165 (= res!10871 (or (= (_4!197 lt!7720) #b00000000000000000000000000000000) (= (_4!197 lt!7720) #b00000000000000000000000000000001)))))

(declare-fun b!14166 () Bool)

(assert (=> b!14166 (= e!8207 (computeModuloWhile!3 jz!20 q!31 lt!7714 lt!7717 lt!7716))))

(assert (= (and d!4853 c!1857) b!14157))

(assert (= (and d!4853 (not c!1857)) b!14158))

(assert (= (and d!4853 res!10872) b!14160))

(assert (= (and b!14160 res!10869) b!14164))

(assert (= (and d!4853 c!1856) b!14166))

(assert (= (and d!4853 (not c!1856)) b!14162))

(assert (= (and d!4853 res!10868) b!14163))

(assert (= (and b!14163 res!10867) b!14159))

(assert (= (and b!14159 res!10870) b!14165))

(assert (= (and b!14165 res!10871) b!14161))

(declare-fun m!19769 () Bool)

(assert (=> b!14166 m!19769))

(declare-fun m!19771 () Bool)

(assert (=> b!14157 m!19771))

(declare-fun m!19773 () Bool)

(assert (=> b!14159 m!19773))

(declare-fun m!19775 () Bool)

(assert (=> d!4853 m!19775))

(declare-fun m!19777 () Bool)

(assert (=> d!4853 m!19777))

(assert (=> d!4853 m!19745))

(declare-fun m!19779 () Bool)

(assert (=> b!14163 m!19779))

(declare-fun m!19781 () Bool)

(assert (=> b!14160 m!19781))

(declare-fun m!19783 () Bool)

(assert (=> b!14164 m!19783))

(assert (=> b!14109 d!4853))

(declare-fun d!4855 () Bool)

(declare-fun res!10875 () Bool)

(declare-fun e!8212 () Bool)

(assert (=> d!4855 (=> (not res!10875) (not e!8212))))

(assert (=> d!4855 (= res!10875 (= (size!508 iq!76) #b00000000000000000000000000010100))))

(assert (=> d!4855 (= (iqInv!0 iq!76) e!8212)))

(declare-fun b!14169 () Bool)

(declare-fun lambda!607 () Int)

(declare-fun all20Int!0 (array!1149 Int) Bool)

(assert (=> b!14169 (= e!8212 (all20Int!0 iq!76 lambda!607))))

(assert (= (and d!4855 res!10875) b!14169))

(declare-fun m!19785 () Bool)

(assert (=> b!14169 m!19785))

(assert (=> b!14115 d!4855))

(declare-fun d!4857 () Bool)

(assert (=> d!4857 (= (QInt!0 lt!7677) (and (bvsle #b00000000000000000000000000000000 lt!7677) (bvsle lt!7677 #b00000000111111111111111111111111)))))

(assert (=> b!14108 d!4857))

(declare-fun bs!2075 () Bool)

(declare-fun b!14170 () Bool)

(assert (= bs!2075 (and b!14170 b!14169)))

(declare-fun lambda!608 () Int)

(assert (=> bs!2075 (= lambda!608 lambda!607)))

(declare-fun d!4859 () Bool)

(declare-fun res!10876 () Bool)

(declare-fun e!8213 () Bool)

(assert (=> d!4859 (=> (not res!10876) (not e!8213))))

(assert (=> d!4859 (= res!10876 (= (size!508 (_3!328 lt!7675)) #b00000000000000000000000000010100))))

(assert (=> d!4859 (= (iqInv!0 (_3!328 lt!7675)) e!8213)))

(assert (=> b!14170 (= e!8213 (all20Int!0 (_3!328 lt!7675) lambda!608))))

(assert (= (and d!4859 res!10876) b!14170))

(declare-fun m!19787 () Bool)

(assert (=> b!14170 m!19787))

(assert (=> b!14114 d!4859))

(check-sat (not b!14160) (not b!14170) (not b!14163) (not b!14135) (not b!14166) (not b!14132) (not b!14118) (not b!14169) (not b!14157) (not b!14131))
(check-sat)
